0 3
0 4
0 5
0 7
0 9
0 11
0 13
0 14
1 4
1 8
1 10
1 15
2 4
2 5
2 10
2 13
3 4
3 6
3 7
3 8
3 12
4 5
4 9
4 10
4 11
4 13
5 6
5 7
5 12
6 7
6 12
7 8
7 10
8 9
8 10
8 13
8 15
9 10
9 12
9 13
9 14
10 13
10 15
11 12
11 15
